0 513816 
1 509254 
2 509004 
3 508098 
4 508078 
5 506480 
6 505438 
7 501846 
8 501802 
9 498802 
10 495596 
11 495498 
12 495274 
13 493416 
14 488130 
15 487336 
16 485154 
17 483222 
18 482982 
19 480030 
20 477818 
21 477356 
22 476018 
23 475816 
24 474844 
25 473630 
26 472382 
27 469380 
28 469260 
29 469150 
30 467596 
31 466310 
32 464682 
33 464142 
34 464050 
35 462436 
36 461518 
37 461394 
38 461300 
39 457760 
40 457298 
41 454500 
42 453704 
43 453182 
44 452308 
45 451044 
46 443370 
47 438070 
48 436306 
49 433808 
50 432310 
51 429948 
52 426336 
53 425794 
54 424320 
55 422572 
56 421644 
57 420136 
58 418814 
59 418420 
60 418308 
61 417792 
62 411360 
63 410954 
64 409686 
65 408312 
66 408240 
67 408240 

